
Gurobi 10.0.1 (mac64[arm]) logging started Fri Sep 22 17:10:03 2023

Set parameter LogFile to value "results/scenario_capacity/CAP_h/CAP_h_-25/mip_log.txt"
Gurobi Optimizer version 10.0.1 build v10.0.1rc0 (mac64[arm])

CPU model: Apple M1
Thread count: 8 physical cores, 8 logical processors, using up to 8 threads

Optimize a model with 3448 rows, 12586 columns and 49324 nonzeros
Model fingerprint: 0x01aa0050
Model has 17956 general constraints
Variable types: 2 continuous, 12584 integer (816 binary)
Coefficient statistics:
  Matrix range     [6e-02, 3e+05]
  Objective range  [9e-02, 2e+05]
  Bounds range     [1e+00, 2e+07]
  RHS range        [4e+03, 2e+04]
  GenCon rhs range [1e+00, 1e+00]
  GenCon coe range [1e+00, 1e+00]

MIP start from previous solve did not produce a new incumbent solution
Processed MIP start in 4.25 seconds (5.82 work units)

Presolve removed 1838 rows and 6839 columns
Presolve time: 0.23s
Presolved: 1610 rows, 5747 columns, 22997 nonzeros
Presolved model has 4 SOS constraint(s)
Variable types: 0 continuous, 5747 integer (34 binary)

Root relaxation: objective 5.119514e+07, 6510 iterations, 0.07 seconds (0.10 work units)

    Nodes    |    Current Node    |     Objective Bounds      |     Work
 Expl Unexpl |  Obj  Depth IntInf | Incumbent    BestBd   Gap | It/Node Time

     0     0 5.1195e+07    0  520          - 5.1195e+07      -     -    4s
     0     0 5.1299e+07    0  813          - 5.1299e+07      -     -    4s
     0     0 5.1300e+07    0  825          - 5.1300e+07      -     -    4s
     0     0 5.1300e+07    0  883          - 5.1300e+07      -     -    4s
     0     0 5.1300e+07    0  884          - 5.1300e+07      -     -    4s
     0     0 5.1853e+07    0 1015          - 5.1853e+07      -     -    4s
H    0     0                    5.528153e+07 5.1853e+07  6.20%     -    4s
     0     0 5.1921e+07    0 1208 5.5282e+07 5.1921e+07  6.08%     -    4s
     0     0 5.1934e+07    0 1162 5.5282e+07 5.1934e+07  6.06%     -    4s
     0     0 5.1947e+07    0 1164 5.5282e+07 5.1947e+07  6.03%     -    4s
     0     0 5.1995e+07    0 1053 5.5282e+07 5.1995e+07  5.94%     -    4s
     0     0 5.2015e+07    0 1038 5.5282e+07 5.2015e+07  5.91%     -    5s
H    0     0                    5.518740e+07 5.2015e+07  5.75%     -    5s
H    0     0                    5.457336e+07 5.2015e+07  4.69%     -    5s
     0     2 5.2015e+07    0 1035 5.4573e+07 5.2015e+07  4.69%     -    5s
H   35    40                    5.452450e+07 5.2081e+07  4.48%   756    6s
H   54    63                    5.412829e+07 5.2081e+07  3.78%   603    6s
H   80    77                    5.412262e+07 5.2081e+07  3.77%   493    6s
H  126   114                    5.412090e+07 5.2081e+07  3.77%   407    6s
H  131   114                    5.410448e+07 5.2081e+07  3.74%   401    6s
H  591   445                    5.400512e+07 5.2107e+07  3.51%   182    7s
H  592   445                    5.386269e+07 5.2107e+07  3.26%   182    7s
H  867   435                    5.379419e+07 5.2144e+07  3.07%   174    7s
* 1135   481              30    5.365793e+07 5.2206e+07  2.71%   156    8s
* 1214   424              33    5.365793e+07 5.2206e+07  2.71%   151    8s
H 1244   446                    5.361699e+07 5.2265e+07  2.52%   155    8s
  1470   370 5.3521e+07   46  991 5.3617e+07 5.2315e+07  2.43%   160   10s
H 2010   529                    5.347822e+07 5.2315e+07  2.18%   174   13s
H 2062   494                    5.347821e+07 5.2315e+07  2.18%   171   13s
  2354   383     cutoff   22      5.3478e+07 5.2572e+07  1.69%   189   15s
H 2570   353                    5.341420e+07 5.3231e+07  0.34%   194   15s
H 3221   532                    5.341419e+07 5.3316e+07  0.18%   170   16s
H 3573   508                    5.341419e+07 5.3363e+07  0.10%   157   16s
H 3978   533                    5.339797e+07 5.3398e+07  0.00%   145   17s
H 4048   533                    5.339796e+07 5.3398e+07  0.00%   143   17s

Cutting planes:
  Gomory: 2
  Implied bound: 468
  Projected implied bound: 12
  MIR: 41
  Flow cover: 8
  Inf proof: 5
  Relax-and-lift: 39

Explored 4091 nodes (590809 simplex iterations) in 17.15 seconds (27.43 work units)
Thread count was 8 (of 8 available processors)

Solution count 10: 5.3398e+07 5.3398e+07 5.34142e+07 ... 5.36579e+07

Optimal solution found (tolerance 1.00e-04)
Best objective 5.339796112500e+07, best bound 5.339796038471e+07, gap 0.0000%

Gurobi 10.0.1 (mac64[arm]) logging started Fri Sep 22 17:12:36 2023

Set parameter LogFile to value "results/scenario_capacity/CAP_h/CAP_h_-25/mip_log.txt"
Gurobi Optimizer version 10.0.1 build v10.0.1rc0 (mac64[arm])

CPU model: Apple M1
Thread count: 8 physical cores, 8 logical processors, using up to 8 threads

Optimize a model with 3448 rows, 12586 columns and 49324 nonzeros
Model fingerprint: 0x01aa0050
Model has 17956 general constraints
Variable types: 2 continuous, 12584 integer (816 binary)
Coefficient statistics:
  Matrix range     [6e-02, 3e+05]
  Objective range  [9e-02, 2e+05]
  Bounds range     [1e+00, 2e+07]
  RHS range        [4e+03, 2e+04]
  GenCon rhs range [1e+00, 1e+00]
  GenCon coe range [1e+00, 1e+00]

MIP start from previous solve did not produce a new incumbent solution
Processed MIP start in 4.98 seconds (5.82 work units)

Presolve removed 1838 rows and 6839 columns
Presolve time: 0.23s
Presolved: 1610 rows, 5747 columns, 22997 nonzeros
Presolved model has 4 SOS constraint(s)
Variable types: 0 continuous, 5747 integer (34 binary)

Root simplex log...

Iteration    Objective       Primal Inf.    Dual Inf.      Time
       0    2.5246653e+06   2.413780e+05   0.000000e+00      5s
    6510    5.1195138e+07   0.000000e+00   0.000000e+00      5s

Root relaxation: objective 5.119514e+07, 6510 iterations, 0.08 seconds (0.10 work units)

    Nodes    |    Current Node    |     Objective Bounds      |     Work
 Expl Unexpl |  Obj  Depth IntInf | Incumbent    BestBd   Gap | It/Node Time

     0     0 5.1195e+07    0  520          - 5.1195e+07      -     -    5s
     0     0 5.1299e+07    0  813          - 5.1299e+07      -     -    5s
     0     0 5.1300e+07    0  825          - 5.1300e+07      -     -    5s
     0     0 5.1300e+07    0  883          - 5.1300e+07      -     -    5s
     0     0 5.1300e+07    0  884          - 5.1300e+07      -     -    5s
     0     0 5.1853e+07    0 1015          - 5.1853e+07      -     -    5s
H    0     0                    5.528153e+07 5.1853e+07  6.20%     -    5s
     0     0 5.1921e+07    0 1208 5.5282e+07 5.1921e+07  6.08%     -    5s
     0     0 5.1934e+07    0 1162 5.5282e+07 5.1934e+07  6.06%     -    5s
     0     0 5.1947e+07    0 1164 5.5282e+07 5.1947e+07  6.03%     -    5s
     0     0 5.1995e+07    0 1053 5.5282e+07 5.1995e+07  5.94%     -    5s
     0     0 5.2015e+07    0 1038 5.5282e+07 5.2015e+07  5.91%     -    5s
H    0     0                    5.518740e+07 5.2015e+07  5.75%     -    6s
H    0     0                    5.457336e+07 5.2015e+07  4.69%     -    6s
     0     2 5.2015e+07    0 1035 5.4573e+07 5.2015e+07  4.69%     -    6s
H   35    40                    5.452450e+07 5.2081e+07  4.48%   756    7s
H   54    63                    5.412829e+07 5.2081e+07  3.78%   603    7s
H   80    77                    5.412262e+07 5.2081e+07  3.77%   493    7s
H  126   114                    5.412090e+07 5.2081e+07  3.77%   407    7s
H  131   114                    5.410448e+07 5.2081e+07  3.74%   401    7s
H  591   445                    5.400512e+07 5.2107e+07  3.51%   182    8s
H  592   445                    5.386269e+07 5.2107e+07  3.26%   182    8s
H  867   435                    5.379419e+07 5.2144e+07  3.07%   174    9s
* 1135   481              30    5.365793e+07 5.2206e+07  2.71%   156    9s
* 1214   424              33    5.365793e+07 5.2206e+07  2.71%   151    9s
  1238   446     cutoff   14      5.3658e+07 5.2263e+07  2.60%   154   10s
H 1244   446                    5.361699e+07 5.2265e+07  2.52%   155   10s
  1887   490 5.2628e+07   23  773 5.3617e+07 5.2315e+07  2.43%   182   15s
H 2010   529                    5.347822e+07 5.2315e+07  2.18%   174   15s
H 2062   494                    5.347821e+07 5.2315e+07  2.18%   171   15s
H 2570   353                    5.341420e+07 5.3231e+07  0.34%   194   17s
H 3221   532                    5.341419e+07 5.3316e+07  0.18%   170   18s
H 3573   508                    5.341419e+07 5.3363e+07  0.10%   157   18s
H 3978   533                    5.339797e+07 5.3398e+07  0.00%   145   19s
H 4048   533                    5.339796e+07 5.3398e+07  0.00%   143   19s

Cutting planes:
  Gomory: 2
  Implied bound: 468
  Projected implied bound: 12
  MIR: 41
  Flow cover: 8
  Inf proof: 5
  Relax-and-lift: 39

Explored 4091 nodes (590809 simplex iterations) in 19.21 seconds (27.43 work units)
Thread count was 8 (of 8 available processors)

Solution count 10: 5.3398e+07 5.3398e+07 5.34142e+07 ... 5.36579e+07

Optimal solution found (tolerance 1.00e-04)
Best objective 5.339796112500e+07, best bound 5.339796038471e+07, gap 0.0000%

Gurobi 10.0.1 (mac64[arm]) logging started Fri Sep 22 17:19:46 2023

Set parameter LogFile to value "results/scenario_capacity/CAP_h/CAP_h_-25/mip_log.txt"
Gurobi Optimizer version 10.0.1 build v10.0.1rc0 (mac64[arm])

CPU model: Apple M1
Thread count: 8 physical cores, 8 logical processors, using up to 8 threads

Optimize a model with 3448 rows, 12586 columns and 49324 nonzeros
Model fingerprint: 0x85d47fa2
Model has 17956 general constraints
Variable types: 2 continuous, 12584 integer (816 binary)
Coefficient statistics:
  Matrix range     [6e-02, 3e+05]
  Objective range  [9e-02, 2e+05]
  Bounds range     [1e+00, 2e+07]
  RHS range        [4e+03, 2e+04]
  GenCon rhs range [1e+00, 1e+00]
  GenCon coe range [1e+00, 1e+00]

MIP start from previous solve did not produce a new incumbent solution
Processed MIP start in 4.76 seconds (7.32 work units)

Presolve removed 1848 rows and 6849 columns
Presolve time: 0.21s
Presolved: 1600 rows, 5737 columns, 22975 nonzeros
Presolved model has 4 SOS constraint(s)
Variable types: 0 continuous, 5737 integer (34 binary)

Root simplex log...

Iteration    Objective       Primal Inf.    Dual Inf.      Time
    2843    4.4789185e+07   2.208107e+06   0.000000e+00      5s
    6546    5.6599065e+07   0.000000e+00   0.000000e+00      5s

Root relaxation: objective 5.659907e+07, 6546 iterations, 0.07 seconds (0.09 work units)

    Nodes    |    Current Node    |     Objective Bounds      |     Work
 Expl Unexpl |  Obj  Depth IntInf | Incumbent    BestBd   Gap | It/Node Time

     0     0 5.6599e+07    0  296          - 5.6599e+07      -     -    5s
     0     0 5.6709e+07    0  861          - 5.6709e+07      -     -    5s
     0     0 5.6709e+07    0  864          - 5.6709e+07      -     -    5s
     0     0 5.6709e+07    0  862          - 5.6709e+07      -     -    5s
     0     0 5.7257e+07    0 1058          - 5.7257e+07      -     -    5s
     0     0 5.7415e+07    0 1185          - 5.7415e+07      -     -    5s
     0     0 5.7418e+07    0 1190          - 5.7418e+07      -     -    5s
H    0     0                    6.069234e+07 5.7418e+07  5.39%     -    5s
     0     0 5.7418e+07    0 1147 6.0692e+07 5.7418e+07  5.39%     -    5s
     0     0 5.7418e+07    0 1217 6.0692e+07 5.7418e+07  5.39%     -    5s
     0     0 5.7418e+07    0 1214 6.0692e+07 5.7418e+07  5.39%     -    5s
     0     0 5.7420e+07    0  867 6.0692e+07 5.7420e+07  5.39%     -    5s
H    0     0                    6.029598e+07 5.7420e+07  4.77%     -    5s
     0     0 5.7420e+07    0 1073 6.0296e+07 5.7420e+07  4.77%     -    5s
     0     0 5.7421e+07    0  970 6.0296e+07 5.7421e+07  4.77%     -    5s
     0     0 5.7429e+07    0 1028 6.0296e+07 5.7429e+07  4.75%     -    5s
     0     0 5.7439e+07    0  992 6.0296e+07 5.7439e+07  4.74%     -    5s
H    0     0                    6.005719e+07 5.7439e+07  4.36%     -    5s
     0     0 5.7452e+07    0  973 6.0057e+07 5.7452e+07  4.34%     -    5s
H    0     0                    5.967489e+07 5.7452e+07  3.73%     -    5s
H    0     0                    5.943147e+07 5.7452e+07  3.33%     -    6s
     0     2 5.7452e+07    0  972 5.9431e+07 5.7452e+07  3.33%     -    6s
H   31    40                    5.941944e+07 5.7493e+07  3.24%   913    6s
H   32    40                    5.941432e+07 5.7493e+07  3.23%   943    6s
H   35    40                    5.940577e+07 5.7493e+07  3.22%   876    6s
H   36    40                    5.920719e+07 5.7493e+07  2.90%   858    6s
H   68    64                    5.920159e+07 5.7493e+07  2.89%   674    6s
H   72    64                    5.884046e+07 5.7493e+07  2.29%   662    6s
H  209   112                    5.882422e+07 5.7493e+07  2.26%   478    7s
H  840   154                    5.879946e+07 5.7983e+07  1.39%   284    9s
  1328   524 5.8798e+07   35    4 5.8799e+07 5.8537e+07  0.45%   209   10s
H 2986  1769                    5.879797e+07 5.8678e+07  0.20%  97.9   11s
H 2987  1682                    5.879783e+07 5.8678e+07  0.20%  97.9   12s
  3143  1686 5.8678e+07   15 1203 5.8798e+07 5.8678e+07  0.20%   119   15s
H 4074  1691                    5.879783e+07 5.8678e+07  0.20%   105   16s
H 4391  1590                    5.879783e+07 5.8678e+07  0.20%   100   16s
H 4463  1490                    5.879782e+07 5.8699e+07  0.17%  98.8   16s

Cutting planes:
  Gomory: 1
  Implied bound: 426
  MIR: 38
  Flow cover: 10
  Inf proof: 2
  Relax-and-lift: 18

Explored 4990 nodes (457058 simplex iterations) in 16.68 seconds (26.12 work units)
Thread count was 8 (of 8 available processors)

Solution count 10: 5.87978e+07 5.87978e+07 5.87978e+07 ... 5.92072e+07

Optimal solution found (tolerance 1.00e-04)
Best objective 5.879782053900e+07, best bound 5.879781761172e+07, gap 0.0000%

Gurobi 10.0.1 (mac64[arm]) logging started Fri Sep 22 17:49:18 2023

Set parameter LogFile to value "results/scenario_capacity/CAP_h/CAP_h_-25/mip_log.txt"
Gurobi Optimizer version 10.0.1 build v10.0.1rc0 (mac64[arm])

CPU model: Apple M1
Thread count: 8 physical cores, 8 logical processors, using up to 8 threads

Optimize a model with 3388 rows, 12586 columns and 49144 nonzeros
Model fingerprint: 0x4e1dde7f
Model has 17956 general constraints
Variable types: 2 continuous, 12584 integer (816 binary)
Coefficient statistics:
  Matrix range     [6e-02, 3e+05]
  Objective range  [9e-02, 2e+05]
  Bounds range     [1e+00, 2e+07]
  RHS range        [4e+03, 2e+04]
  GenCon rhs range [1e+00, 1e+00]
  GenCon coe range [1e+00, 1e+00]

MIP start from previous solve produced solution with objective 5.94296e+07 (1.48s)
MIP start from previous solve produced solution with objective 5.71412e+07 (1.51s)
MIP start from previous solve produced solution with objective 5.71343e+07 (2.32s)
MIP start from previous solve produced solution with objective 5.63664e+07 (2.35s)
MIP start from previous solve produced solution with objective 5.58158e+07 (3.04s)
MIP start from previous solve produced solution with objective 5.58156e+07 (4.19s)
Processing MIP start from previous solve: 188 nodes explored in subMIP, total elapsed time 5s
MIP start from previous solve produced solution with objective 5.57175e+07 (5.59s)
MIP start from previous solve produced solution with objective 5.56967e+07 (6.91s)
MIP start from previous solve produced solution with objective 5.5695e+07 (7.59s)
MIP start from previous solve produced solution with objective 5.56632e+07 (7.59s)
Processing MIP start from previous solve: 493 nodes explored in subMIP, total elapsed time 10s
Loaded MIP start from previous solve with objective 5.56632e+07
Processed MIP start in 10.43 seconds (15.90 work units)

Presolve removed 1761 rows and 6795 columns
Presolve time: 0.26s
Presolved: 1627 rows, 5791 columns, 23138 nonzeros
Presolved model has 4 SOS constraint(s)
Variable types: 0 continuous, 5791 integer (34 binary)

Root simplex log...

Iteration    Objective       Primal Inf.    Dual Inf.      Time
       0    2.5307965e+06   2.591860e+05   0.000000e+00     11s
    6168    5.3382886e+07   0.000000e+00   0.000000e+00     11s

Root relaxation: objective 5.338289e+07, 6168 iterations, 0.08 seconds (0.09 work units)

    Nodes    |    Current Node    |     Objective Bounds      |     Work
 Expl Unexpl |  Obj  Depth IntInf | Incumbent    BestBd   Gap | It/Node Time

     0     0 5.3383e+07    0  297 5.5663e+07 5.3383e+07  4.10%     -   11s
     0     0 5.3496e+07    0  856 5.5663e+07 5.3496e+07  3.89%     -   11s
     0     0 5.3497e+07    0  954 5.5663e+07 5.3497e+07  3.89%     -   11s
     0     0 5.3497e+07    0  854 5.5663e+07 5.3497e+07  3.89%     -   11s
     0     0 5.3497e+07    0  853 5.5663e+07 5.3497e+07  3.89%     -   11s
     0     0 5.3830e+07    0 1088 5.5663e+07 5.3830e+07  3.29%     -   11s
     0     0 5.3835e+07    0 1125 5.5663e+07 5.3835e+07  3.29%     -   11s
     0     0 5.3836e+07    0 1174 5.5663e+07 5.3836e+07  3.28%     -   11s
     0     0 5.3837e+07    0 1273 5.5663e+07 5.3837e+07  3.28%     -   11s
     0     0 5.3838e+07    0 1085 5.5663e+07 5.3838e+07  3.28%     -   11s
     0     0 5.3838e+07    0 1085 5.5663e+07 5.3838e+07  3.28%     -   11s
     0     0 5.3839e+07    0 1004 5.5663e+07 5.3839e+07  3.28%     -   11s
     0     0 5.3839e+07    0  945 5.5663e+07 5.3839e+07  3.28%     -   11s
     0     0 5.3839e+07    0 1005 5.5663e+07 5.3839e+07  3.28%     -   11s
     0     0 5.3839e+07    0  993 5.5663e+07 5.3839e+07  3.28%     -   12s
     0     2 5.3839e+07    0  993 5.5663e+07 5.3839e+07  3.28%     -   12s
   400   131 5.4701e+07    9  923 5.5663e+07 5.4419e+07  2.23%   387   15s
*  752   174              29    5.565914e+07 5.4797e+07  1.55%   372   16s
*  805   211              12    5.565649e+07 5.4797e+07  1.54%   356   16s
H  932   275                    5.565109e+07 5.5275e+07  0.68%   327   17s
H  943   275                    5.565105e+07 5.5275e+07  0.68%   324   17s
H  948   275                    5.561769e+07 5.5275e+07  0.62%   322   17s
H  951   275                    5.559106e+07 5.5275e+07  0.57%   322   17s
H 1025   229                    5.557625e+07 5.5356e+07  0.40%   321   17s
H 1036   229                    5.557625e+07 5.5363e+07  0.38%   321   17s

Cutting planes:
  Gomory: 2
  Cover: 3
  Implied bound: 1035
  MIR: 48
  Inf proof: 3
  Relax-and-lift: 44

Explored 2598 nodes (469073 simplex iterations) in 19.58 seconds (28.91 work units)
Thread count was 8 (of 8 available processors)

Solution count 10: 5.55763e+07 5.55763e+07 5.55911e+07 ... 5.5695e+07

Optimal solution found (tolerance 1.00e-04)
Best objective 5.557625030700e+07, best bound 5.557624957051e+07, gap 0.0000%

Gurobi 10.0.1 (mac64[arm]) logging started Fri Sep 22 19:32:32 2023

Set parameter LogFile to value "results/scenario_capacity/CAP_h/CAP_h_-25/mip_log.txt"
Gurobi Optimizer version 10.0.1 build v10.0.1rc0 (mac64[arm])

CPU model: Apple M1
Thread count: 8 physical cores, 8 logical processors, using up to 8 threads

Optimize a model with 3388 rows, 12586 columns and 49144 nonzeros
Model fingerprint: 0x974ec6e3
Model has 17956 general constraints
Variable types: 2 continuous, 12584 integer (816 binary)
Coefficient statistics:
  Matrix range     [6e-02, 3e+05]
  Objective range  [9e-02, 2e+05]
  Bounds range     [1e+00, 2e+07]
  RHS range        [4e+03, 2e+04]
  GenCon rhs range [1e+00, 1e+00]
  GenCon coe range [1e+00, 1e+00]
Presolve removed 1761 rows and 6795 columns
Presolve time: 0.29s
Presolved: 1627 rows, 5791 columns, 23173 nonzeros
Presolved model has 4 SOS constraint(s)
Variable types: 0 continuous, 5791 integer (34 binary)

Root relaxation: objective 5.715018e+07, 6474 iterations, 0.07 seconds (0.09 work units)

    Nodes    |    Current Node    |     Objective Bounds      |     Work
 Expl Unexpl |  Obj  Depth IntInf | Incumbent    BestBd   Gap | It/Node Time

     0     0 5.7150e+07    0  565          - 5.7150e+07      -     -    0s
     0     0 5.7290e+07    0 1077          - 5.7290e+07      -     -    0s
     0     0 5.7848e+07    0 1114          - 5.7848e+07      -     -    0s
     0     0 5.7848e+07    0 1131          - 5.7848e+07      -     -    0s
     0     0 5.7848e+07    0 1141          - 5.7848e+07      -     -    0s
     0     0 5.7848e+07    0 1143          - 5.7848e+07      -     -    0s
H    0     0                    6.316518e+07 5.7848e+07  8.42%     -    1s
     0     0 5.8099e+07    0 1143 6.3165e+07 5.8099e+07  8.02%     -    1s
H    0     0                    6.315247e+07 5.8099e+07  8.00%     -    1s
     0     0 5.8167e+07    0 1286 6.3152e+07 5.8167e+07  7.89%     -    1s
     0     0 5.8167e+07    0 1185 6.3152e+07 5.8167e+07  7.89%     -    1s
     0     0 5.8167e+07    0 1314 6.3152e+07 5.8167e+07  7.89%     -    1s
     0     0 5.8167e+07    0 1214 6.3152e+07 5.8167e+07  7.89%     -    1s
H    0     0                    6.313062e+07 5.8167e+07  7.86%     -    1s
     0     0 5.8227e+07    0 1201 6.3131e+07 5.8227e+07  7.77%     -    1s
H    0     0                    6.309105e+07 5.8227e+07  7.71%     -    2s
H    0     0                    6.181440e+07 5.8227e+07  5.80%     -    2s
     0     2 5.8227e+07    0 1197 6.1814e+07 5.8227e+07  5.80%     -    2s
H   31    36                    6.155490e+07 5.8227e+07  5.41%  1175    3s
H   69    73                    6.151176e+07 5.8227e+07  5.34%   820    3s
H   72    73                    6.084699e+07 5.8227e+07  4.31%   819    3s
H  109    96                    6.052923e+07 5.8227e+07  3.80%   724    4s
*  351   223              19    6.030164e+07 5.8227e+07  3.44%   356    4s
   354   229     cutoff   41      6.0302e+07 5.8227e+07  3.44%   353    5s
H  461   299                    6.026971e+07 5.8227e+07  3.39%   312    5s
H  468   299                    5.983311e+07 5.8227e+07  2.69%   308    5s
H  483   299                    5.949170e+07 5.8227e+07  2.13%   301    5s
H  695   274                    5.948201e+07 5.8930e+07  0.93%   308    6s
H  929   106                    5.948199e+07 5.9412e+07  0.12%   268    6s

Cutting planes:
  Cover: 2
  Implied bound: 1096
  MIR: 99
  Flow path: 1
  Inf proof: 8
  Relax-and-lift: 38

Explored 991 nodes (267315 simplex iterations) in 6.97 seconds (11.10 work units)
Thread count was 8 (of 8 available processors)

Solution count 10: 5.9482e+07 5.9482e+07 5.94917e+07 ... 6.15549e+07

Optimal solution found (tolerance 1.00e-04)
Best objective 5.948198670750e+07, best bound 5.948198397859e+07, gap 0.0000%
Discarded solution information

Gurobi 10.0.1 (mac64[arm]) logging started Fri Sep 22 20:49:07 2023

Set parameter LogFile to value "results/scenario_capacity/CAP_h/CAP_h_-25/mip_log.txt"
Gurobi Optimizer version 10.0.1 build v10.0.1rc0 (mac64[arm])

CPU model: Apple M1
Thread count: 8 physical cores, 8 logical processors, using up to 8 threads

Optimize a model with 3388 rows, 12586 columns and 49144 nonzeros
Model fingerprint: 0x974ec6e3
Model has 17956 general constraints
Variable types: 2 continuous, 12584 integer (816 binary)
Coefficient statistics:
  Matrix range     [6e-02, 3e+05]
  Objective range  [9e-02, 2e+05]
  Bounds range     [1e+00, 2e+07]
  RHS range        [4e+03, 2e+04]
  GenCon rhs range [1e+00, 1e+00]
  GenCon coe range [1e+00, 1e+00]
Presolve removed 1761 rows and 6795 columns
Presolve time: 0.37s
Presolved: 1627 rows, 5791 columns, 23173 nonzeros
Presolved model has 4 SOS constraint(s)
Variable types: 0 continuous, 5791 integer (34 binary)

Root relaxation: objective 5.715018e+07, 6474 iterations, 0.07 seconds (0.09 work units)

    Nodes    |    Current Node    |     Objective Bounds      |     Work
 Expl Unexpl |  Obj  Depth IntInf | Incumbent    BestBd   Gap | It/Node Time

     0     0 5.7150e+07    0  565          - 5.7150e+07      -     -    0s
     0     0 5.7290e+07    0 1077          - 5.7290e+07      -     -    0s
     0     0 5.7848e+07    0 1114          - 5.7848e+07      -     -    0s
     0     0 5.7848e+07    0 1131          - 5.7848e+07      -     -    0s
     0     0 5.7848e+07    0 1141          - 5.7848e+07      -     -    0s
     0     0 5.7848e+07    0 1143          - 5.7848e+07      -     -    0s
H    0     0                    6.316518e+07 5.7848e+07  8.42%     -    1s
     0     0 5.8099e+07    0 1143 6.3165e+07 5.8099e+07  8.02%     -    1s
H    0     0                    6.315247e+07 5.8099e+07  8.00%     -    1s
     0     0 5.8167e+07    0 1286 6.3152e+07 5.8167e+07  7.89%     -    1s
     0     0 5.8167e+07    0 1185 6.3152e+07 5.8167e+07  7.89%     -    1s
     0     0 5.8167e+07    0 1314 6.3152e+07 5.8167e+07  7.89%     -    1s
     0     0 5.8167e+07    0 1214 6.3152e+07 5.8167e+07  7.89%     -    1s
H    0     0                    6.313062e+07 5.8167e+07  7.86%     -    1s
     0     0 5.8227e+07    0 1201 6.3131e+07 5.8227e+07  7.77%     -    1s
H    0     0                    6.309105e+07 5.8227e+07  7.71%     -    1s
H    0     0                    6.181440e+07 5.8227e+07  5.80%     -    2s
     0     2 5.8227e+07    0 1197 6.1814e+07 5.8227e+07  5.80%     -    2s
H   31    36                    6.155490e+07 5.8227e+07  5.41%  1175    3s
H   69    73                    6.151176e+07 5.8227e+07  5.34%   820    3s
H   72    73                    6.084699e+07 5.8227e+07  4.31%   819    3s
H  109    96                    6.052923e+07 5.8227e+07  3.80%   724    4s
*  351   223              19    6.030164e+07 5.8227e+07  3.44%   356    4s
   382   246 5.9748e+07    9  611 6.0302e+07 5.8227e+07  3.44%   340    5s
H  461   299                    6.026971e+07 5.8227e+07  3.39%   312    5s
H  468   299                    5.983311e+07 5.8227e+07  2.69%   308    5s
H  483   299                    5.949170e+07 5.8227e+07  2.13%   301    5s
H  695   274                    5.948201e+07 5.8930e+07  0.93%   308    6s
H  929   106                    5.948199e+07 5.9412e+07  0.12%   268    7s

Cutting planes:
  Cover: 2
  Implied bound: 1096
  MIR: 99
  Flow path: 1
  Inf proof: 8
  Relax-and-lift: 38

Explored 991 nodes (267315 simplex iterations) in 7.42 seconds (11.10 work units)
Thread count was 8 (of 8 available processors)

Solution count 10: 5.9482e+07 5.9482e+07 5.94917e+07 ... 6.15549e+07

Optimal solution found (tolerance 1.00e-04)
Best objective 5.948198670750e+07, best bound 5.948198397859e+07, gap 0.0000%
Discarded solution information
